9704
10399
10987
11443
11798
12083
12322
12531
12710
12892
13034
13155
13285
13386
13514
13610
13703
13782
13901
14002
14082
14154
14223
14273
14332
14394
14447
14505
14545
14596
14623
14670
14695
14741
14771
14793
14809
14816
14825
14834
14839
14839
14839
14839
14839
14839
14839
14839
14839
14839
14839
14839
14839
14839
14839
14839
14839
14839
14839
14839
14839
14839
14839
14839
14839
14839
14839
14839
14839
14839
14839
14839
14839
14839
14839
14839
14839
14839
14839
14839
14839
14839
14839
14839
14839
14839
14839
14839
14839
14839
14839
14839
14839
14839
14839
14839
14839
14839
14839
